13
-1 8 32 45 13 56 21 58 46 82 81 44 96
22 -1 61 35 50 73 66 44 59 92 39 53 24
54 10 -1 49 86 13 74 22 68 18 87 5 58
91 2 25 -1 14 14 24 34 74 72 59 33 70
87 97 18 77 -1 70 63 68 92 85 2 80 13
27 2 99 27 25 -1 24 23 72 61 81 3 32
5 93 25 31 92 42 -1 86 64 87 60 13 74
70 70 35 33 11 60 96 -1 85 50 40 94 95
24 19 25 76 94 58 2 71 -1 78 93 51 84
18 64 19 52 87 60 26 10 57 -1 15 76 27
43 58 64 9 82 86 65 87 77 74 -1 27 29
28 23 20 2 62 23 96 37 61 95 25 -1 60
2 16 30 26 11 71 11 47 53 20 90 24 -1
